20 10
54 19 53 49 15 71 12 99 85 72
32 24 25 8 20 75 55 51 43 7
54 73 45 71 99 79 59 60 33 34
71 14 74 76 7 74 54 54 82 5
10 34 97 21 47 76 43 60 25 42
11 29 55 39 98 84 9 4 73 49
90 89 13 64 95 42 96 30 79 95
86 7 21 95 98 97 69 53 44 79
6 91 67 13 66 31 8 18 34 27
13 39 87 38 18 55 53 29 30 14
57 5 47 29 55 76 7 41 65 73
11 61 51 82 49 49 16 67 18 5
28 78 63 23 99 17 17 84 82 77
25 74 38 29 57 42 66 5 65 50
56 81 91 72 51 63 64 72 90 20
90 60 13 29 53 55 39 70 16 37
67 23 88 28 54 74 59 69 58 66
21 4 32 70 57 5 55 30 80 95
63 67 8 61 55 87 2 75 16 63
98 39 84 18 27 44 76 39 86 93
